Mn3ZnN
1.0000000000
        3.9000            0.0000000000         0.0000000000
        0.0000000000         3.9000            0.0000000000
        0.0000000000         0.0000000000         3.9000
3 1 1
direct
     0.000000000         0.500000000         0.500000000  Mn1
     0.500000000         0.000000000         0.500000000  Mn1
     0.500000000         0.500000000         0.000000000  Mn1
     0.000000000         0.000000000         0.000000000  Zn1
     0.500000000         0.500000000         0.500000000  N1
